(set-info :smt-lib-version 2.6)
(set-info :category "crafted")
(set-logic QF_FFA)
(define-sort FF0 () (_ FiniteField 52435875175126190479447740508185965837690552500527637822603658699938581184513))
(declare-fun return_n15_alt () FF0)
(declare-fun x15_n13_alt () FF0)
(declare-fun mul_n30_alt () FF0)
(declare-fun x14_n5_alt () FF0)
(declare-fun mul_n29_alt () FF0)
(declare-fun x13_n7_alt () FF0)
(declare-fun mul_n28_alt () FF0)
(declare-fun x12_n0_alt () FF0)
(declare-fun mul_n27_alt () FF0)
(declare-fun x11_n10_alt () FF0)
(declare-fun mul_n26_alt () FF0)
(declare-fun x10_n3_alt () FF0)
(declare-fun mul_n25_alt () FF0)
(declare-fun x9_n8_alt () FF0)
(declare-fun mul_n24_alt () FF0)
(declare-fun mul_n23_alt () FF0)
(declare-fun x7_n12_alt () FF0)
(declare-fun mul_n22_alt () FF0)
(declare-fun x6_n14_alt () FF0)
(declare-fun mul_n21_alt () FF0)
(declare-fun x5_n9_alt () FF0)
(declare-fun mul_n20_alt () FF0)
(declare-fun x4_n2_alt () FF0)
(declare-fun mul_n19_alt () FF0)
(declare-fun x3_n6_alt () FF0)
(declare-fun mul_n18_alt () FF0)
(declare-fun x2_n16_alt () FF0)
(declare-fun mul_n17_alt () FF0)
(declare-fun x1_n11_alt () FF0)
(declare-fun x0_n4_alt () FF0)
(declare-fun return_n15 () FF0)
(declare-fun x15_n13 () FF0)
(declare-fun mul_n30 () FF0)
(declare-fun x14_n5 () FF0)
(declare-fun mul_n29 () FF0)
(declare-fun x13_n7 () FF0)
(declare-fun mul_n28 () FF0)
(declare-fun x12_n0 () FF0)
(declare-fun mul_n27 () FF0)
(declare-fun x11_n10 () FF0)
(declare-fun mul_n26 () FF0)
(declare-fun x10_n3 () FF0)
(declare-fun mul_n25 () FF0)
(declare-fun x9_n8 () FF0)
(declare-fun mul_n24 () FF0)
(declare-fun mul_n23 () FF0)
(declare-fun x7_n12 () FF0)
(declare-fun mul_n22 () FF0)
(declare-fun x6_n14 () FF0)
(declare-fun mul_n21 () FF0)
(declare-fun x5_n9 () FF0)
(declare-fun mul_n20 () FF0)
(declare-fun x4_n2 () FF0)
(declare-fun mul_n19 () FF0)
(declare-fun x3_n6 () FF0)
(declare-fun mul_n18 () FF0)
(declare-fun x2_n16 () FF0)
(declare-fun mul_n17 () FF0)
(declare-fun x1_n11 () FF0)
(declare-fun x0_n4 () FF0)
(declare-fun x8_n1_alt () FF0)
(declare-fun x8_n1 () FF0)
(assert 
  (let ((let0 (as ff1 FF0)))
  (let ((let1 (as ff52435875175126190479447740508185965837690552500527637822603658699938581184512 FF0)))
  (let ((let2 return_n15_alt))
  (let ((let3 (ff.mul let2 let1)))
  (let ((let4 (ff.add let3 let0)))
  (let ((let5 x15_n13_alt))
  (let ((let6 (ff.mul let5 let1)))
  (let ((let7 (ff.add let6 let0)))
  (let ((let8 mul_n30_alt))
  (let ((let9 (ff.mul let8 let7)))
  (let ((let10 (= let9 let4)))
  (let ((let11 x14_n5_alt))
  (let ((let12 (ff.mul let11 let1)))
  (let ((let13 (ff.add let12 let0)))
  (let ((let14 mul_n29_alt))
  (let ((let15 (ff.mul let14 let13)))
  (let ((let16 (= let15 let8)))
  (let ((let17 x13_n7_alt))
  (let ((let18 (ff.mul let17 let1)))
  (let ((let19 (ff.add let18 let0)))
  (let ((let20 mul_n28_alt))
  (let ((let21 (ff.mul let20 let19)))
  (let ((let22 (= let21 let14)))
  (let ((let23 x12_n0_alt))
  (let ((let24 (ff.mul let23 let1)))
  (let ((let25 (ff.add let24 let0)))
  (let ((let26 mul_n27_alt))
  (let ((let27 (ff.mul let26 let25)))
  (let ((let28 (= let27 let20)))
  (let ((let29 x11_n10_alt))
  (let ((let30 (ff.mul let29 let1)))
  (let ((let31 (ff.add let30 let0)))
  (let ((let32 mul_n26_alt))
  (let ((let33 (ff.mul let32 let31)))
  (let ((let34 (= let33 let26)))
  (let ((let35 x10_n3_alt))
  (let ((let36 (ff.mul let35 let1)))
  (let ((let37 (ff.add let36 let0)))
  (let ((let38 mul_n25_alt))
  (let ((let39 (ff.mul let38 let37)))
  (let ((let40 (= let39 let32)))
  (let ((let41 x9_n8_alt))
  (let ((let42 (ff.mul let41 let1)))
  (let ((let43 (ff.add let42 let0)))
  (let ((let44 mul_n24_alt))
  (let ((let45 (ff.mul let44 let43)))
  (let ((let46 (= let45 let38)))
  (let ((let47 mul_n23_alt))
  (let ((let48 x7_n12_alt))
  (let ((let49 (ff.mul let48 let1)))
  (let ((let50 (ff.add let49 let0)))
  (let ((let51 mul_n22_alt))
  (let ((let52 (ff.mul let51 let50)))
  (let ((let53 (= let52 let47)))
  (let ((let54 x6_n14_alt))
  (let ((let55 (ff.mul let54 let1)))
  (let ((let56 (ff.add let55 let0)))
  (let ((let57 mul_n21_alt))
  (let ((let58 (ff.mul let57 let56)))
  (let ((let59 (= let58 let51)))
  (let ((let60 x5_n9_alt))
  (let ((let61 (ff.mul let60 let1)))
  (let ((let62 (ff.add let61 let0)))
  (let ((let63 mul_n20_alt))
  (let ((let64 (ff.mul let63 let62)))
  (let ((let65 (= let64 let57)))
  (let ((let66 x4_n2_alt))
  (let ((let67 (ff.mul let66 let1)))
  (let ((let68 (ff.add let67 let0)))
  (let ((let69 mul_n19_alt))
  (let ((let70 (ff.mul let69 let68)))
  (let ((let71 (= let70 let63)))
  (let ((let72 x3_n6_alt))
  (let ((let73 (ff.mul let72 let1)))
  (let ((let74 (ff.add let73 let0)))
  (let ((let75 mul_n18_alt))
  (let ((let76 (ff.mul let75 let74)))
  (let ((let77 (= let76 let69)))
  (let ((let78 x2_n16_alt))
  (let ((let79 (ff.mul let78 let1)))
  (let ((let80 (ff.add let79 let0)))
  (let ((let81 mul_n17_alt))
  (let ((let82 (ff.mul let81 let80)))
  (let ((let83 (= let82 let75)))
  (let ((let84 x1_n11_alt))
  (let ((let85 (ff.mul let84 let1)))
  (let ((let86 (ff.add let85 let0)))
  (let ((let87 x0_n4_alt))
  (let ((let88 (ff.mul let87 let1)))
  (let ((let89 (ff.add let88 let0)))
  (let ((let90 (ff.mul let89 let86)))
  (let ((let91 (= let90 let81)))
  (let ((let92 (and let91 let83 let77 let71 let65 let59 let53 let46 let40 let34 let28 let22 let16 let10)))
  (let ((let93 return_n15))
  (let ((let94 (ff.mul let93 let1)))
  (let ((let95 (ff.add let94 let0)))
  (let ((let96 x15_n13))
  (let ((let97 (ff.mul let96 let1)))
  (let ((let98 (ff.add let97 let0)))
  (let ((let99 mul_n30))
  (let ((let100 (ff.mul let99 let98)))
  (let ((let101 (= let100 let95)))
  (let ((let102 x14_n5))
  (let ((let103 (ff.mul let102 let1)))
  (let ((let104 (ff.add let103 let0)))
  (let ((let105 mul_n29))
  (let ((let106 (ff.mul let105 let104)))
  (let ((let107 (= let106 let99)))
  (let ((let108 x13_n7))
  (let ((let109 (ff.mul let108 let1)))
  (let ((let110 (ff.add let109 let0)))
  (let ((let111 mul_n28))
  (let ((let112 (ff.mul let111 let110)))
  (let ((let113 (= let112 let105)))
  (let ((let114 x12_n0))
  (let ((let115 (ff.mul let114 let1)))
  (let ((let116 (ff.add let115 let0)))
  (let ((let117 mul_n27))
  (let ((let118 (ff.mul let117 let116)))
  (let ((let119 (= let118 let111)))
  (let ((let120 x11_n10))
  (let ((let121 (ff.mul let120 let1)))
  (let ((let122 (ff.add let121 let0)))
  (let ((let123 mul_n26))
  (let ((let124 (ff.mul let123 let122)))
  (let ((let125 (= let124 let117)))
  (let ((let126 x10_n3))
  (let ((let127 (ff.mul let126 let1)))
  (let ((let128 (ff.add let127 let0)))
  (let ((let129 mul_n25))
  (let ((let130 (ff.mul let129 let128)))
  (let ((let131 (= let130 let123)))
  (let ((let132 x9_n8))
  (let ((let133 (ff.mul let132 let1)))
  (let ((let134 (ff.add let133 let0)))
  (let ((let135 mul_n24))
  (let ((let136 (ff.mul let135 let134)))
  (let ((let137 (= let136 let129)))
  (let ((let138 mul_n23))
  (let ((let139 x7_n12))
  (let ((let140 (ff.mul let139 let1)))
  (let ((let141 (ff.add let140 let0)))
  (let ((let142 mul_n22))
  (let ((let143 (ff.mul let142 let141)))
  (let ((let144 (= let143 let138)))
  (let ((let145 x6_n14))
  (let ((let146 (ff.mul let145 let1)))
  (let ((let147 (ff.add let146 let0)))
  (let ((let148 mul_n21))
  (let ((let149 (ff.mul let148 let147)))
  (let ((let150 (= let149 let142)))
  (let ((let151 x5_n9))
  (let ((let152 (ff.mul let151 let1)))
  (let ((let153 (ff.add let152 let0)))
  (let ((let154 mul_n20))
  (let ((let155 (ff.mul let154 let153)))
  (let ((let156 (= let155 let148)))
  (let ((let157 x4_n2))
  (let ((let158 (ff.mul let157 let1)))
  (let ((let159 (ff.add let158 let0)))
  (let ((let160 mul_n19))
  (let ((let161 (ff.mul let160 let159)))
  (let ((let162 (= let161 let154)))
  (let ((let163 x3_n6))
  (let ((let164 (ff.mul let163 let1)))
  (let ((let165 (ff.add let164 let0)))
  (let ((let166 mul_n18))
  (let ((let167 (ff.mul let166 let165)))
  (let ((let168 (= let167 let160)))
  (let ((let169 x2_n16))
  (let ((let170 (ff.mul let169 let1)))
  (let ((let171 (ff.add let170 let0)))
  (let ((let172 mul_n17))
  (let ((let173 (ff.mul let172 let171)))
  (let ((let174 (= let173 let166)))
  (let ((let175 x1_n11))
  (let ((let176 (ff.mul let175 let1)))
  (let ((let177 (ff.add let176 let0)))
  (let ((let178 x0_n4))
  (let ((let179 (ff.mul let178 let1)))
  (let ((let180 (ff.add let179 let0)))
  (let ((let181 (ff.mul let180 let177)))
  (let ((let182 (= let181 let172)))
  (let ((let183 (and let182 let174 let168 let162 let156 let150 let144 let137 let131 let125 let119 let113 let107 let101)))
  (let ((let184 (= let93 let2)))
  (let ((let185 (not let184)))
  (let ((let186 (= let120 let29)))
  (let ((let187 (= let175 let84)))
  (let ((let188 (= let178 let87)))
  (let ((let189 x8_n1_alt))
  (let ((let190 x8_n1))
  (let ((let191 (= let190 let189)))
  (let ((let192 (= let102 let11)))
  (let ((let193 (= let151 let60)))
  (let ((let194 (= let157 let66)))
  (let ((let195 (= let126 let35)))
  (let ((let196 (= let169 let78)))
  (let ((let197 (= let108 let17)))
  (let ((let198 (= let132 let41)))
  (let ((let199 (= let96 let5)))
  (let ((let200 (= let114 let23)))
  (let ((let201 (= let139 let48)))
  (let ((let202 (= let145 let54)))
  (let ((let203 (= let163 let72)))
  (let ((let204 (and let203 let202 let201 let200 let199 let198 let197 let196 let195 let194 let193 let192 let191 let188 let187 let186)))
  (let ((let205 (and let204 let185 let183 let92)))
  let205
))))))))))))))))))))))))))))))))))))))))))))))))))))))))))))))))))))))))))))))))))))))))))))))))))))))))))))))))))))))))))))))))))))))))))))))))))))))))))))))))))))))))))))))))))))))))))))))))))))))))))))))
)
(check-sat)
